(set-info :source |printed by MathSAT|)
(declare-fun main@%tmp10.i_0_5 () Int)
(declare-fun .y.17 () Int)
(declare-fun .y.11 () Int)
(declare-fun .y.18 () Int)
(declare-fun main@%shadow.mem.0_0_3 () (Array Int Int))
(declare-fun .y.19 () (Array Int Int))
(declare-fun main@%x.0.i_0_1 () Int)
(declare-fun .y.20 () Int)
(declare-fun main@%tmp2.i_0_5 () Int)
(declare-fun .y.21 () Int)
(declare-fun .y.12 () (Array Int Int))
(declare-fun .y.22 () (Array Int Int))
(declare-fun .y.13 () Int)
(declare-fun .y.23 () Int)
(declare-fun .loc.14 () Bool)
(declare-fun .loc.24 () Bool)
(declare-fun .loc.15 () Bool)
(declare-fun .loc.25 () Bool)
(declare-fun .loc.16 () Bool)
(declare-fun .loc.26 () Bool)
(declare-fun main@%tmp30.i_0 () Int)
(declare-fun main@%tmp41.i_0_0 () Int)
(define-fun .def_8 () Int (! main@%tmp10.i_0_5 :next |.y.17|))
(define-fun .def_10 () Int (! .y.11 :next |.y.18|))
(define-fun .def_12 () (Array Int Int) (! main@%shadow.mem.0_0_3 :next |.y.19|))
(define-fun .def_14 () Int (! main@%x.0.i_0_1 :next |.y.20|))
(define-fun .def_16 () Int (! main@%tmp2.i_0_5 :next |.y.21|))
(define-fun .def_18 () (Array Int Int) (! .y.12 :next |.y.22|))
(define-fun .def_20 () Int (! .y.13 :next |.y.23|))
(define-fun .def_22 () Bool (! .loc.14 :next |.loc.24|))
(define-fun .def_24 () Bool (! .loc.15 :next |.loc.25|))
(define-fun .def_26 () Bool (! .loc.16 :next |.loc.26|))
(define-fun .def_51 () Int (! main@%tmp30.i_0 :next |.xtv.1|))
(define-fun .def_89 () Int (! main@%tmp41.i_0_0 :next |.xtv.2|))
(define-fun .def_75 () Bool (not .def_22))
(define-fun .def_41 () Bool (not .def_24))
(define-fun .def_192 () Bool (and .def_41 .def_75))
(define-fun .def_190 () Bool (not .def_26))
(define-fun .def_193 () Bool (! (and .def_190 .def_192) :init true))
(define-fun .def_115 () Int (select .def_12 .def_89))
(define-fun .def_151 () Bool (= .def_115 42))
(define-fun .def_177 () Bool (not .def_151))
(define-fun .def_152 () Bool (<= .def_16 .def_14))
(define-fun .def_153 () Bool (not .def_152))
(define-fun .def_93 () Int (* (- 1) .def_89))
(define-fun .def_96 () Int (+ .def_14 .def_93))
(define-fun .def_97 () Int (+ .def_8 .def_96))
(define-fun .def_98 () Bool (= .def_97 0))
(define-fun .def_154 () Bool (and .def_98 .def_153))
(define-fun .def_90 () Bool (<= .def_89 0))
(define-fun .def_91 () Bool (not .def_90))
(define-fun .def_29 () Bool (<= .def_8 0))
(define-fun .def_92 () Bool (or .def_29 .def_91))
(define-fun .def_155 () Bool (and .def_92 .def_154))
(define-fun .def_30 () Bool (not .def_29))
(define-fun .def_156 () Bool (and .def_30 .def_155))
(define-fun .def_178 () Bool (and .def_156 .def_177))
(define-fun .def_179 () Bool (and .def_22 .def_178))
(define-fun .def_180 () Bool (and .loc.26 .def_179))
(define-fun .def_103 () Bool (not .loc.24))
(define-fun .def_181 () Bool (and .def_103 .def_180))
(define-fun .def_33 () Bool (not .loc.25))
(define-fun .def_182 () Bool (and .def_33 .def_181))
(define-fun .def_175 () Bool (= .y.21 .def_20))
(define-fun .def_173 () Bool (= .y.19 .def_18))
(define-fun .def_171 () Bool (= .y.17 .def_16))
(define-fun .def_166 () Bool (and .loc.24 .loc.25))
(define-fun .def_35 () Bool (not .loc.26))
(define-fun .def_167 () Bool (and .def_35 .def_166))
(define-fun .def_168 () Bool (and .def_75 .def_167))
(define-fun .def_140 () Bool (= .y.20 0))
(define-fun .def_169 () Bool (and .def_140 .def_168))
(define-fun .def_119 () Bool (<= .def_20 .def_14))
(define-fun .def_170 () Bool (and .def_119 .def_169))
(define-fun .def_172 () Bool (and .def_170 .def_171))
(define-fun .def_174 () Bool (and .def_172 .def_173))
(define-fun .def_176 () Bool (and .def_174 .def_175))
(define-fun .def_183 () Bool (or .def_176 .def_182))
(define-fun .def_157 () Bool (and .def_151 .def_156))
(define-fun .def_158 () Bool (and .def_22 .def_157))
(define-fun .def_159 () Bool (and .loc.24 .def_158))
(define-fun .def_160 () Bool (and .loc.25 .def_159))
(define-fun .def_161 () Bool (and .def_35 .def_160))
(define-fun .def_107 () Int (* (- 1) .y.20))
(define-fun .def_108 () Int (+ .def_14 .def_107))
(define-fun .def_109 () Bool (= .def_108 (- 1)))
(define-fun .def_162 () Bool (and .def_109 .def_161))
(define-fun .def_37 () Bool (= .def_8 .y.17))
(define-fun .def_163 () Bool (and .def_37 .def_162))
(define-fun .def_112 () Bool (= .def_12 .y.19))
(define-fun .def_164 () Bool (and .def_112 .def_163))
(define-fun .def_39 () Bool (= .def_16 .y.21))
(define-fun .def_165 () Bool (and .def_39 .def_164))
(define-fun .def_184 () Bool (or .def_165 .def_183))
(define-fun .def_185 () Bool (and .def_24 .def_184))
(define-fun .def_149 () Bool (= .def_16 .y.23))
(define-fun .def_147 () Bool (= .def_14 .y.21))
(define-fun .def_137 () Bool (and .def_22 .loc.25))
(define-fun .def_138 () Bool (and .def_103 .def_137))
(define-fun .def_139 () Bool (and .def_35 .def_138))
(define-fun .def_141 () Bool (and .def_139 .def_140))
(define-fun .def_142 () Bool (and .def_37 .def_141))
(define-fun .def_143 () Bool (and .def_112 .def_142))
(define-fun .def_144 () Bool (and .def_41 .def_143))
(define-fun .def_43 () Bool (= .def_18 .y.22))
(define-fun .def_145 () Bool (and .def_43 .def_144))
(define-fun .def_64 () Bool (<= .def_16 .def_10))
(define-fun .def_146 () Bool (and .def_64 .def_145))
(define-fun .def_148 () Bool (and .def_146 .def_147))
(define-fun .def_150 () Bool (and .def_148 .def_149))
(define-fun .def_186 () Bool (or .def_150 .def_185))
(define-fun .def_135 () Bool (= .def_20 .y.23))
(define-fun .def_130 () Bool (<= .def_16 0))
(define-fun .def_133 () Bool (not .def_130))
(define-fun .def_67 () Bool (<= .def_51 0))
(define-fun .def_68 () Bool (not .def_67))
(define-fun .def_131 () Bool (or .def_68 .def_130))
(define-fun .def_59 () Int (* (- 1) .def_51))
(define-fun .def_126 () Int (+ .def_16 .def_59))
(define-fun .def_127 () Int (+ .def_14 .def_126))
(define-fun .def_128 () Bool (= .def_127 0))
(define-fun .def_120 () Bool (not .def_119))
(define-fun .def_116 () (Array Int Int) (store .def_18 .def_51 .def_115))
(define-fun .def_117 () Bool (= .y.22 .def_116))
(define-fun .def_99 () Bool (and .def_92 .def_98))
(define-fun .def_100 () Bool (and .def_30 .def_99))
(define-fun .def_101 () Bool (and .def_24 .def_100))
(define-fun .def_102 () Bool (and .loc.25 .def_101))
(define-fun .def_104 () Bool (and .def_102 .def_103))
(define-fun .def_105 () Bool (and .def_35 .def_104))
(define-fun .def_106 () Bool (and .def_75 .def_105))
(define-fun .def_110 () Bool (and .def_106 .def_109))
(define-fun .def_111 () Bool (and .def_37 .def_110))
(define-fun .def_113 () Bool (and .def_111 .def_112))
(define-fun .def_114 () Bool (and .def_39 .def_113))
(define-fun .def_118 () Bool (and .def_114 .def_117))
(define-fun .def_121 () Bool (and .def_118 .def_120))
(define-fun .def_129 () Bool (and .def_121 .def_128))
(define-fun .def_132 () Bool (and .def_129 .def_131))
(define-fun .def_134 () Bool (and .def_132 .def_133))
(define-fun .def_136 () Bool (and .def_134 .def_135))
(define-fun .def_187 () Bool (or .def_136 .def_186))
(define-fun .def_86 () Bool (<= .y.21 0))
(define-fun .def_87 () Bool (not .def_86))
(define-fun .def_83 () Bool (<= .y.17 0))
(define-fun .def_84 () Bool (not .def_83))
(define-fun .def_80 () Bool (<= .y.20 0))
(define-fun .def_81 () Bool (not .def_80))
(define-fun .def_78 () Bool (= .y.18 0))
(define-fun .def_73 () Bool (and .loc.24 .def_33))
(define-fun .def_74 () Bool (and .def_35 .def_73))
(define-fun .def_76 () Bool (and .def_74 .def_75))
(define-fun .def_77 () Bool (and .def_41 .def_76))
(define-fun .def_79 () Bool (and .def_77 .def_78))
(define-fun .def_82 () Bool (and .def_79 .def_81))
(define-fun .def_85 () Bool (and .def_82 .def_84))
(define-fun .def_88 () Bool (and .def_85 .def_87))
(define-fun .def_188 () Bool (or .def_88 .def_187))
(define-fun .def_71 () Bool (= .def_14 .y.20))
(define-fun .def_69 () Bool (or .def_29 .def_68))
(define-fun .def_65 () Bool (not .def_64))
(define-fun .def_60 () Int (+ .def_10 .def_59))
(define-fun .def_61 () Int (+ .def_8 .def_60))
(define-fun .def_62 () Bool (= .def_61 0))
(define-fun .def_52 () (Array Int Int) (store .def_12 .def_51 42))
(define-fun .def_53 () Bool (= .y.19 .def_52))
(define-fun .def_46 () Int (* (- 1) .y.18))
(define-fun .def_47 () Int (+ .def_10 .def_46))
(define-fun .def_48 () Bool (= .def_47 (- 1)))
(define-fun .def_31 () Bool (and .def_22 .def_30))
(define-fun .def_32 () Bool (and .loc.24 .def_31))
(define-fun .def_34 () Bool (and .def_32 .def_33))
(define-fun .def_36 () Bool (and .def_34 .def_35))
(define-fun .def_38 () Bool (and .def_36 .def_37))
(define-fun .def_40 () Bool (and .def_38 .def_39))
(define-fun .def_42 () Bool (and .def_40 .def_41))
(define-fun .def_44 () Bool (and .def_42 .def_43))
(define-fun .def_49 () Bool (and .def_44 .def_48))
(define-fun .def_54 () Bool (and .def_49 .def_53))
(define-fun .def_63 () Bool (and .def_54 .def_62))
(define-fun .def_66 () Bool (and .def_63 .def_65))
(define-fun .def_70 () Bool (and .def_66 .def_69))
(define-fun .def_72 () Bool (and .def_70 .def_71))
(define-fun .def_189 () Bool (or .def_72 .def_188))
(define-fun .def_191 () Bool (! (and .def_189 .def_190) :trans true))
(define-fun .def_194 () Bool (and .def_26 .def_192))
(define-fun .def_195 () Bool (! (not .def_194) :invar-property 0))
(assert true)
